p cnf 84 243
c t mc
1 -2 -3 0
-1 2 -3 0
1 2 3 0
-1 -2 3 0
4 5 -6 0
-4 -5 -6 0
4 -5 6 0
-4 5 6 0
8 5 0
8 -7 0
-5 7 -8 0
10 -9 0
10 7 0
9 -7 -10 0
11 -8 0
11 10 0
8 -10 -11 0
-15 -13 0
-15 14 0
13 -14 15 0
16 12 0
16 -15 0
-12 15 -16 0
17 -11 0
17 16 0
11 -16 -17 0
-17 7 -18 0
17 -7 -18 0
-17 -7 18 0
17 7 18 0
-19 -6 0
-19 -18 0
6 18 19 0
20 -3 0
20 -19 0
3 19 -20 0
21 14 0
21 -17 0
-14 17 -21 0
22 -20 0
22 -21 0
20 21 -22 0
25 23 0
25 -24 0
-23 24 -25 0
-4 25 -26 0
4 -25 -26 0
-4 -25 26 0
4 25 26 0
-26 27 -28 0
26 -27 -28 0
-26 -27 28 0
26 27 28 0
29 22 0
29 28 0
-22 -28 -29 0
31 30 0
31 -24 0
-30 24 -31 0
32 -9 0
32 -7 0
9 7 -32 0
-33 -23 0
-33 -24 0
23 24 33 0
34 32 0
34 33 0
-32 -33 -34 0
-36 -24 0
-36 35 0
24 -35 36 0
-30 -36 -37 0
30 36 -37 0
-30 36 37 0
30 -36 37 0
38 34 0
38 37 0
-34 -37 -38 0
1 40 -41 0
-1 -40 -41 0
1 -40 41 0
-1 40 41 0
-39 -41 -42 0
39 41 -42 0
-39 41 42 0
39 -41 42 0
44 -43 0
44 -27 0
43 27 -44 0
-45 -42 0
-45 -44 0
42 44 45 0
-46 38 0
-46 -45 0
-38 45 46 0
48 47 0
48 16 0
-47 -16 -48 0
49 41 0
49 12 0
-41 -12 -49 0
50 49 0
50 10 0
-49 -10 -50 0
-51 -48 0
-51 50 0
48 -50 51 0
-5 10 -52 0
5 -10 -52 0
-5 -10 52 0
5 10 52 0
-51 -52 -53 0
51 52 -53 0
-51 52 53 0
51 -52 53 0
-54 46 0
-54 -53 0
-46 53 54 0
31 -54 -55 0
-31 54 -55 0
31 54 55 0
-31 -54 55 0
-57 7 0
-57 -56 0
-7 56 57 0
-55 57 -58 0
55 -57 -58 0
-55 -57 58 0
55 57 58 0
-29 -58 -59 0
29 58 -59 0
-29 58 59 0
29 -58 59 0
16 -47 -60 0
-16 47 -60 0
16 47 60 0
-16 -47 60 0
7 60 -61 0
-7 -60 -61 0
7 -60 61 0
-7 60 61 0
-39 61 -62 0
39 -61 -62 0
-39 -61 62 0
39 61 62 0
-59 62 -63 0
59 -62 -63 0
-59 -62 63 0
59 62 63 0
-64 -2 0
-64 -13 0
2 13 64 0
-65 -64 0
-65 -1 0
64 1 65 0
66 14 0
66 -5 0
-14 5 -66 0
67 25 0
67 66 0
-25 -66 -67 0
68 4 0
68 -13 0
-4 13 -68 0
36 -68 -69 0
-36 68 -69 0
36 68 69 0
-36 -68 69 0
-67 -69 -70 0
67 69 -70 0
-67 69 70 0
67 -69 70 0
-71 65 0
-71 70 0
-65 -70 71 0
-72 5 0
-72 30 0
-5 -30 72 0
73 -2 0
73 1 0
2 -1 -73 0
-72 73 -74 0
72 -73 -74 0
-72 -73 74 0
72 73 74 0
76 40 0
76 75 0
-40 -75 -76 0
77 -76 0
77 -24 0
76 24 -77 0
-77 -61 -78 0
77 61 -78 0
-77 61 78 0
77 -61 78 0
79 74 0
79 78 0
-74 -78 -79 0
80 71 0
80 -79 0
-71 79 -80 0
-81 -40 0
-81 23 0
40 -23 81 0
82 5 0
82 -81 0
-5 81 -82 0
83 80 0
83 82 0
-80 -82 -83 0
-63 83 -84 0
63 -83 -84 0
-63 -83 84 0
63 83 84 0
-51 16 -4 -73 35 72 -28 0
71 -38 -37 -11 0
-76 51 -24 32 -55 -81 -33 -21 -7 -15 0
-65 -26 -62 -49 60 -84 0
-79 8 -6 58 45 -3 -77 69 -71 0
-82 -59 0
-23 73 0
43 -39 37 80 -9 -62 69 59 0
-22 49 -15 -74 -48 20 0
50 48 -33 0
14 13 30 -25 46 0
21 15 -29 -4 -37 32 -14 0
70 56 0
-50 -68 0
25 -63 8 36 0
-28 84 -57 0
-59 -13 -6 74 5 0
-56 77 39 19 82 -80 -37 0
36 -69 0
20 -54 -70 -60 -61 -10 -47 0
-77 33 -72 -16 54 0
-58 0
-42 75 -28 -79 -65 24 22 -36 0
-23 65 27 3 0
-44 -34 0
-50 -9 53 -82 29 34 -13 0
46 -15 41 72 28 0
33 -34 0
84 0
